sets/C/cp-n9-k2.vrp
NAME : cp-n9-k2
COMMENT : (Claudio Procida. Randomly generated for Beluga VRP Solver)
TYPE : CVRP
DIMENSION : 9
EDGE_WEIGHT_TYPE : EUC_2D
CAPACITY : 78
NODE_COORD_SECTION
 1   8   3
 2   5   4
 3   1   1
 4   3   2
 5   4   6
 6   6   3
 7   1   2
 8   4   1
 9   2   4
DEMAND_SECTION
 1   0
 2  20
 3   5
 4  18
 5  17
 6  24
 7  19
 8  16
 9   4
DEPOT_SECTION
 1
-1
EOF
