sets/C/cp-n9-k2.opt
Route #1: 4 1 5
Route #2: 8 6 2 3 7
cost 26
